instances/knapsack/discrete_knapsack_uncertainty/knapsack_80_2.lp
\ Model knapsack_80_2
\ LP format - for model browsing. Use MPS format to capture full model detail.
\ Signature: 0xf86d0bbf74a39a5e
Minimize
  - 2 x[0] - 27 x[1] - 64 x[2] - 96 x[3] - 98 x[4] - 5 x[5] - 74 x[6]
   - 40 x[7] - 67 x[8] - 91 x[9] - 71 x[10] - 19 x[11] - 91 x[12]
   - 74 x[13] - 63 x[14] - 56 x[15] - 74 x[16] - 66 x[17] - 67 x[18]
   - 66 x[19] - 6 x[20] - 23 x[21] - 40 x[22] - 80 x[23] - 93 x[24]
   - 23 x[25] - 40 x[26] - 16 x[27] - 70 x[28] - 85 x[29] - 61 x[30]
   - 4 x[31] - 48 x[32] - 15 x[33] - 40 x[34] - 25 x[35] - 17 x[36]
   - 19 x[37] - 31 x[38] - 72 x[39] - 100 x[40] - 78 x[41] - 18 x[42]
   - 91 x[43] - 35 x[44] - 3 x[45] - 9 x[46] - 17 x[47] - 21 x[48]
   - 10 x[49] - 51 x[50] - 99 x[51] - 27 x[52] - 33 x[53] - 60 x[54]
   - 62 x[55] - 83 x[56] - 88 x[57] - 92 x[58] - 59 x[59] - 28 x[60]
   - 50 x[61] - 18 x[62] - 26 x[63] - 15 x[64] - 93 x[65] - 29 x[66]
   - 30 x[67] - 81 x[68] - 62 x[69] - 9 x[70] - 43 x[71] - 61 x[72]
   - 10 x[73] - 47 x[74] - 74 x[75] - 58 x[76] - 65 x[77] - 36 x[78]
   - 40 x[79]
Subject To
 primal_upper: 8 x[0] + 36 x[1] + 66 x[2] + 15 x[3] + 72 x[4] + 58 x[5]
   + 49 x[6] + 92 x[7] + 81 x[8] + 82 x[9] + 44 x[10] + 27 x[11] + 32 x[12]
   + 20 x[13] + 81 x[14] + 41 x[15] + 57 x[16] + 52 x[17] + 25 x[18]
   + 2 x[19] + 93 x[20] + 32 x[21] + 16 x[22] + 3 x[23] + 37 x[24]
   + 40 x[25] + 14 x[26] + 20 x[27] + 78 x[28] + 59 x[29] + 22 x[30]
   + 92 x[31] + 32 x[32] + 41 x[33] + 92 x[34] + 9 x[35] + 4 x[36]
   + 29 x[37] + 96 x[38] + 11 x[39] + 87 x[40] + 30 x[41] + 6 x[42]
   + 38 x[43] + 39 x[44] + 95 x[45] + 50 x[46] + 54 x[47] + 83 x[48]
   + 76 x[49] + 87 x[50] + 60 x[51] + x[52] + 64 x[53] + x[54] + 100 x[55]
   + 49 x[56] + 11 x[57] + 100 x[58] + 86 x[59] + 97 x[60] + 95 x[61]
   + 100 x[62] + 19 x[63] + 40 x[64] + 4 x[65] + 69 x[66] + 71 x[67]
   + 12 x[68] + 34 x[69] + 98 x[70] + 38 x[71] + 98 x[72] + 83 x[73]
   + 80 x[74] + 25 x[75] + 55 x[76] + 19 x[77] + 13 x[78] + 79 x[79]
   + 0.8 r[0] + 3.6 r[1] + 6.6 r[2] + 1.5 r[3] + 7.2 r[4] + 5.8 r[5]
   + 4.9 r[6] + 9.2 r[7] + 8.1 r[8] + 8.2 r[9] + 4.4 r[10] + 2.7 r[11]
   + 3.2 r[12] + 2 r[13] + 8.1 r[14] + 4.1 r[15] + 5.7 r[16] + 5.2 r[17]
   + 2.5 r[18] + 0.2 r[19] + 9.3 r[20] + 3.2 r[21] + 1.6 r[22] + 0.3 r[23]
   + 3.7 r[24] + 4 r[25] + 1.4 r[26] + 2 r[27] + 7.8 r[28] + 5.9 r[29]
   + 2.2 r[30] + 9.2 r[31] + 3.2 r[32] + 4.1 r[33] + 9.2 r[34] + 0.9 r[35]
   + 0.4 r[36] + 2.9 r[37] + 9.6 r[38] + 1.1 r[39] + 8.7 r[40] + 3 r[41]
   + 0.6 r[42] + 3.8 r[43] + 3.9 r[44] + 9.5 r[45] + 5 r[46] + 5.4 r[47]
   + 8.3 r[48] + 7.6 r[49] + 8.7 r[50] + 6 r[51] + 0.1 r[52] + 6.4 r[53]
   + 0.1 r[54] + 10 r[55] + 4.9 r[56] + 1.1 r[57] + 10 r[58] + 8.6 r[59]
   + 9.7 r[60] + 9.5 r[61] + 10 r[62] + 1.9 r[63] + 4 r[64] + 0.4 r[65]
   + 6.9 r[66] + 7.1 r[67] + 1.2 r[68] + 3.4 r[69] + 9.8 r[70] + 3.8 r[71]
   + 9.8 r[72] + 8.3 r[73] + 8 r[74] + 2.5 r[75] + 5.5 r[76] + 1.9 r[77]
   + 1.3 r[78] + 7.9 r[79] <= 381
 primal_lower: 2.93339977355516 x[0] + 1.941860142137598 x[1]
   + 4.188041793042174 x[2] + 0.9062811297013486 x[3]
   + 4.63797816146667 x[4] + 3.683405835925046 x[5]
   + 3.815611973249966 x[6] + 0.7104838396654999 x[7]
   + 1.807439017633348 x[8] + 4.2124113469256 x[9]
   + 2.385509907144337 x[10] + 3.40290034350011 x[11]
   + 3.251772600008219 x[12] + 3.453257688826015 x[13]
   + 4.154687654897162 x[14] + 1.718569077638527 x[15]
   + 4.837882755484789 x[16] + 2.409800475387831 x[17]
   + 4.737920594668189 x[18] + 1.69642759456582 x[19]
   + 1.463426982714115 x[20] + 3.784564249045117 x[21]
   + 3.050178262610567 x[22] + 1.388131526615021 x[23]
   + 2.91970561539229 x[24] + 0.2183863771857608 x[25]
   + 3.379014089522961 x[26] + 3.287449087610542 x[27]
   + 1.94778308312575 x[28] + 3.619467271607704 x[29]
   + 0.6989822905723054 x[30] + 2.594162949496113 x[31]
   + 3.684838746464261 x[32] + 2.31896160104315 x[33]
   + 0.9103800057391194 x[34] + 1.100855633021899 x[35]
   + 3.266728801535371 x[36] + 3.88974781212338 x[37]
   + 3.677595194116857 x[38] + 0.865114828835515 x[39]
   + 2.598828975406475 x[40] + 0.5733444466530755 x[41]
   + 4.613032688382331 x[42] + 0.7414509271844922 x[43]
   + 0.8116626281380491 x[44] + 3.046384361540381 x[45]
   + 1.600034132416479 x[46] + 3.959161575041114 x[47]
   + 3.981176492369016 x[48] + 1.080698646035274 x[49]
   + 0.8371405081582994 x[50] + 0.3881201966091792 x[51]
   + 0.4890036146808393 x[52] + 2.215642791183593 x[53]
   + 4.470110267678251 x[54] + 2.222420241015801 x[55]
   + 1.647722873851946 x[56] + 3.138760351877627 x[57]
   + 4.884074540418129 x[58] + 0.5651167711560966 x[59]
   + 3.523150242234156 x[60] + 3.708909762624578 x[61]
   + 3.103840002323027 x[62] + 0.6693950391199488 x[63]
   + 1.638216693354133 x[64] + 2.396285567439064 x[65]
   + 0.7501356837045473 x[66] + 1.239797294818095 x[67]
   + 4.497014580438268 x[68] + 4.150135979024114 x[69]
   + 0.5095350324677379 x[70] + 0.7266575058642214 x[71]
   + 4.720179708118404 x[72] + 0.3253230737900752 x[73]
   + 0.8726120763007827 x[74] + 1.5590118344238 x[75]
   + 0.4335904856992426 x[76] + 1.749093359173346 x[77]
   + 0.551444369877756 x[78] + 4.800460400467641 x[79] + 12 u[0] + 76 u[1]
   + 22 u[2] + 7 u[3] + 76 u[4] + 58 u[5] + 25 u[6] + 28 u[7] + 61 u[8]
   + 10 u[9] + 4 u[10] + 87 u[11] + 4 u[12] + 52 u[13] + 85 u[14]
   + 65 u[15] + 37 u[16] + 32 u[17] + 93 u[18] + 74 u[19] + 81 u[20]
   + 96 u[21] + 80 u[22] + 67 u[23] + 57 u[24] + 80 u[25] + 74 u[26]
   + 100 u[27] + 54 u[28] + 43 u[29] + 98 u[30] + 92 u[31] + 24 u[32]
   + 69 u[33] + 48 u[34] + 57 u[35] + 64 u[36] + 69 u[37] + 8 u[38]
   + 31 u[39] + 23 u[40] + 78 u[41] + 2 u[42] + 10 u[43] + 95 u[44]
   + 83 u[45] + 78 u[46] + 18 u[47] + 43 u[48] + 32 u[49] + 75 u[50]
   + 76 u[51] + 85 u[52] + 20 u[53] + 17 u[54] + 32 u[55] + 49 u[56]
   + 39 u[57] + 36 u[58] + 2 u[59] + 29 u[60] + 15 u[61] + 68 u[62]
   + 91 u[63] + 8 u[64] + 76 u[65] + 41 u[66] + 91 u[67] + 52 u[68]
   + 34 u[69] + 54 u[70] + 46 u[71] + 66 u[72] + 51 u[73] + 36 u[74]
   + 73 u[75] + 79 u[76] + 35 u[77] + 5 u[78] + 63 u[79] <= 88754
 mccormick1[0]: - u[0] + r[0] <= 0
 mccormick1[1]: - u[1] + r[1] <= 0
 mccormick1[2]: - u[2] + r[2] <= 0
 mccormick1[3]: - u[3] + r[3] <= 0
 mccormick1[4]: - u[4] + r[4] <= 0
 mccormick1[5]: - u[5] + r[5] <= 0
 mccormick1[6]: - u[6] + r[6] <= 0
 mccormick1[7]: - u[7] + r[7] <= 0
 mccormick1[8]: - u[8] + r[8] <= 0
 mccormick1[9]: - u[9] + r[9] <= 0
 mccormick1[10]: - u[10] + r[10] <= 0
 mccormick1[11]: - u[11] + r[11] <= 0
 mccormick1[12]: - u[12] + r[12] <= 0
 mccormick1[13]: - u[13] + r[13] <= 0
 mccormick1[14]: - u[14] + r[14] <= 0
 mccormick1[15]: - u[15] + r[15] <= 0
 mccormick1[16]: - u[16] + r[16] <= 0
 mccormick1[17]: - u[17] + r[17] <= 0
 mccormick1[18]: - u[18] + r[18] <= 0
 mccormick1[19]: - u[19] + r[19] <= 0
 mccormick1[20]: - u[20] + r[20] <= 0
 mccormick1[21]: - u[21] + r[21] <= 0
 mccormick1[22]: - u[22] + r[22] <= 0
 mccormick1[23]: - u[23] + r[23] <= 0
 mccormick1[24]: - u[24] + r[24] <= 0
 mccormick1[25]: - u[25] + r[25] <= 0
 mccormick1[26]: - u[26] + r[26] <= 0
 mccormick1[27]: - u[27] + r[27] <= 0
 mccormick1[28]: - u[28] + r[28] <= 0
 mccormick1[29]: - u[29] + r[29] <= 0
 mccormick1[30]: - u[30] + r[30] <= 0
 mccormick1[31]: - u[31] + r[31] <= 0
 mccormick1[32]: - u[32] + r[32] <= 0
 mccormick1[33]: - u[33] + r[33] <= 0
 mccormick1[34]: - u[34] + r[34] <= 0
 mccormick1[35]: - u[35] + r[35] <= 0
 mccormick1[36]: - u[36] + r[36] <= 0
 mccormick1[37]: - u[37] + r[37] <= 0
 mccormick1[38]: - u[38] + r[38] <= 0
 mccormick1[39]: - u[39] + r[39] <= 0
 mccormick1[40]: - u[40] + r[40] <= 0
 mccormick1[41]: - u[41] + r[41] <= 0
 mccormick1[42]: - u[42] + r[42] <= 0
 mccormick1[43]: - u[43] + r[43] <= 0
 mccormick1[44]: - u[44] + r[44] <= 0
 mccormick1[45]: - u[45] + r[45] <= 0
 mccormick1[46]: - u[46] + r[46] <= 0
 mccormick1[47]: - u[47] + r[47] <= 0
 mccormick1[48]: - u[48] + r[48] <= 0
 mccormick1[49]: - u[49] + r[49] <= 0
 mccormick1[50]: - u[50] + r[50] <= 0
 mccormick1[51]: - u[51] + r[51] <= 0
 mccormick1[52]: - u[52] + r[52] <= 0
 mccormick1[53]: - u[53] + r[53] <= 0
 mccormick1[54]: - u[54] + r[54] <= 0
 mccormick1[55]: - u[55] + r[55] <= 0
 mccormick1[56]: - u[56] + r[56] <= 0
 mccormick1[57]: - u[57] + r[57] <= 0
 mccormick1[58]: - u[58] + r[58] <= 0
 mccormick1[59]: - u[59] + r[59] <= 0
 mccormick1[60]: - u[60] + r[60] <= 0
 mccormick1[61]: - u[61] + r[61] <= 0
 mccormick1[62]: - u[62] + r[62] <= 0
 mccormick1[63]: - u[63] + r[63] <= 0
 mccormick1[64]: - u[64] + r[64] <= 0
 mccormick1[65]: - u[65] + r[65] <= 0
 mccormick1[66]: - u[66] + r[66] <= 0
 mccormick1[67]: - u[67] + r[67] <= 0
 mccormick1[68]: - u[68] + r[68] <= 0
 mccormick1[69]: - u[69] + r[69] <= 0
 mccormick1[70]: - u[70] + r[70] <= 0
 mccormick1[71]: - u[71] + r[71] <= 0
 mccormick1[72]: - u[72] + r[72] <= 0
 mccormick1[73]: - u[73] + r[73] <= 0
 mccormick1[74]: - u[74] + r[74] <= 0
 mccormick1[75]: - u[75] + r[75] <= 0
 mccormick1[76]: - u[76] + r[76] <= 0
 mccormick1[77]: - u[77] + r[77] <= 0
 mccormick1[78]: - u[78] + r[78] <= 0
 mccormick1[79]: - u[79] + r[79] <= 0
 mccormick2[0]: - x[0] + r[0] <= 0
 mccormick2[1]: - x[1] + r[1] <= 0
 mccormick2[2]: - x[2] + r[2] <= 0
 mccormick2[3]: - x[3] + r[3] <= 0
 mccormick2[4]: - x[4] + r[4] <= 0
 mccormick2[5]: - x[5] + r[5] <= 0
 mccormick2[6]: - x[6] + r[6] <= 0
 mccormick2[7]: - x[7] + r[7] <= 0
 mccormick2[8]: - x[8] + r[8] <= 0
 mccormick2[9]: - x[9] + r[9] <= 0
 mccormick2[10]: - x[10] + r[10] <= 0
 mccormick2[11]: - x[11] + r[11] <= 0
 mccormick2[12]: - x[12] + r[12] <= 0
 mccormick2[13]: - x[13] + r[13] <= 0
 mccormick2[14]: - x[14] + r[14] <= 0
 mccormick2[15]: - x[15] + r[15] <= 0
 mccormick2[16]: - x[16] + r[16] <= 0
 mccormick2[17]: - x[17] + r[17] <= 0
 mccormick2[18]: - x[18] + r[18] <= 0
 mccormick2[19]: - x[19] + r[19] <= 0
 mccormick2[20]: - x[20] + r[20] <= 0
 mccormick2[21]: - x[21] + r[21] <= 0
 mccormick2[22]: - x[22] + r[22] <= 0
 mccormick2[23]: - x[23] + r[23] <= 0
 mccormick2[24]: - x[24] + r[24] <= 0
 mccormick2[25]: - x[25] + r[25] <= 0
 mccormick2[26]: - x[26] + r[26] <= 0
 mccormick2[27]: - x[27] + r[27] <= 0
 mccormick2[28]: - x[28] + r[28] <= 0
 mccormick2[29]: - x[29] + r[29] <= 0
 mccormick2[30]: - x[30] + r[30] <= 0
 mccormick2[31]: - x[31] + r[31] <= 0
 mccormick2[32]: - x[32] + r[32] <= 0
 mccormick2[33]: - x[33] + r[33] <= 0
 mccormick2[34]: - x[34] + r[34] <= 0
 mccormick2[35]: - x[35] + r[35] <= 0
 mccormick2[36]: - x[36] + r[36] <= 0
 mccormick2[37]: - x[37] + r[37] <= 0
 mccormick2[38]: - x[38] + r[38] <= 0
 mccormick2[39]: - x[39] + r[39] <= 0
 mccormick2[40]: - x[40] + r[40] <= 0
 mccormick2[41]: - x[41] + r[41] <= 0
 mccormick2[42]: - x[42] + r[42] <= 0
 mccormick2[43]: - x[43] + r[43] <= 0
 mccormick2[44]: - x[44] + r[44] <= 0
 mccormick2[45]: - x[45] + r[45] <= 0
 mccormick2[46]: - x[46] + r[46] <= 0
 mccormick2[47]: - x[47] + r[47] <= 0
 mccormick2[48]: - x[48] + r[48] <= 0
 mccormick2[49]: - x[49] + r[49] <= 0
 mccormick2[50]: - x[50] + r[50] <= 0
 mccormick2[51]: - x[51] + r[51] <= 0
 mccormick2[52]: - x[52] + r[52] <= 0
 mccormick2[53]: - x[53] + r[53] <= 0
 mccormick2[54]: - x[54] + r[54] <= 0
 mccormick2[55]: - x[55] + r[55] <= 0
 mccormick2[56]: - x[56] + r[56] <= 0
 mccormick2[57]: - x[57] + r[57] <= 0
 mccormick2[58]: - x[58] + r[58] <= 0
 mccormick2[59]: - x[59] + r[59] <= 0
 mccormick2[60]: - x[60] + r[60] <= 0
 mccormick2[61]: - x[61] + r[61] <= 0
 mccormick2[62]: - x[62] + r[62] <= 0
 mccormick2[63]: - x[63] + r[63] <= 0
 mccormick2[64]: - x[64] + r[64] <= 0
 mccormick2[65]: - x[65] + r[65] <= 0
 mccormick2[66]: - x[66] + r[66] <= 0
 mccormick2[67]: - x[67] + r[67] <= 0
 mccormick2[68]: - x[68] + r[68] <= 0
 mccormick2[69]: - x[69] + r[69] <= 0
 mccormick2[70]: - x[70] + r[70] <= 0
 mccormick2[71]: - x[71] + r[71] <= 0
 mccormick2[72]: - x[72] + r[72] <= 0
 mccormick2[73]: - x[73] + r[73] <= 0
 mccormick2[74]: - x[74] + r[74] <= 0
 mccormick2[75]: - x[75] + r[75] <= 0
 mccormick2[76]: - x[76] + r[76] <= 0
 mccormick2[77]: - x[77] + r[77] <= 0
 mccormick2[78]: - x[78] + r[78] <= 0
 mccormick2[79]: - x[79] + r[79] <= 0
 mccormick3[0]: x[0] + u[0] - r[0] <= 1
 mccormick3[1]: x[1] + u[1] - r[1] <= 1
 mccormick3[2]: x[2] + u[2] - r[2] <= 1
 mccormick3[3]: x[3] + u[3] - r[3] <= 1
 mccormick3[4]: x[4] + u[4] - r[4] <= 1
 mccormick3[5]: x[5] + u[5] - r[5] <= 1
 mccormick3[6]: x[6] + u[6] - r[6] <= 1
 mccormick3[7]: x[7] + u[7] - r[7] <= 1
 mccormick3[8]: x[8] + u[8] - r[8] <= 1
 mccormick3[9]: x[9] + u[9] - r[9] <= 1
 mccormick3[10]: x[10] + u[10] - r[10] <= 1
 mccormick3[11]: x[11] + u[11] - r[11] <= 1
 mccormick3[12]: x[12] + u[12] - r[12] <= 1
 mccormick3[13]: x[13] + u[13] - r[13] <= 1
 mccormick3[14]: x[14] + u[14] - r[14] <= 1
 mccormick3[15]: x[15] + u[15] - r[15] <= 1
 mccormick3[16]: x[16] + u[16] - r[16] <= 1
 mccormick3[17]: x[17] + u[17] - r[17] <= 1
 mccormick3[18]: x[18] + u[18] - r[18] <= 1
 mccormick3[19]: x[19] + u[19] - r[19] <= 1
 mccormick3[20]: x[20] + u[20] - r[20] <= 1
 mccormick3[21]: x[21] + u[21] - r[21] <= 1
 mccormick3[22]: x[22] + u[22] - r[22] <= 1
 mccormick3[23]: x[23] + u[23] - r[23] <= 1
 mccormick3[24]: x[24] + u[24] - r[24] <= 1
 mccormick3[25]: x[25] + u[25] - r[25] <= 1
 mccormick3[26]: x[26] + u[26] - r[26] <= 1
 mccormick3[27]: x[27] + u[27] - r[27] <= 1
 mccormick3[28]: x[28] + u[28] - r[28] <= 1
 mccormick3[29]: x[29] + u[29] - r[29] <= 1
 mccormick3[30]: x[30] + u[30] - r[30] <= 1
 mccormick3[31]: x[31] + u[31] - r[31] <= 1
 mccormick3[32]: x[32] + u[32] - r[32] <= 1
 mccormick3[33]: x[33] + u[33] - r[33] <= 1
 mccormick3[34]: x[34] + u[34] - r[34] <= 1
 mccormick3[35]: x[35] + u[35] - r[35] <= 1
 mccormick3[36]: x[36] + u[36] - r[36] <= 1
 mccormick3[37]: x[37] + u[37] - r[37] <= 1
 mccormick3[38]: x[38] + u[38] - r[38] <= 1
 mccormick3[39]: x[39] + u[39] - r[39] <= 1
 mccormick3[40]: x[40] + u[40] - r[40] <= 1
 mccormick3[41]: x[41] + u[41] - r[41] <= 1
 mccormick3[42]: x[42] + u[42] - r[42] <= 1
 mccormick3[43]: x[43] + u[43] - r[43] <= 1
 mccormick3[44]: x[44] + u[44] - r[44] <= 1
 mccormick3[45]: x[45] + u[45] - r[45] <= 1
 mccormick3[46]: x[46] + u[46] - r[46] <= 1
 mccormick3[47]: x[47] + u[47] - r[47] <= 1
 mccormick3[48]: x[48] + u[48] - r[48] <= 1
 mccormick3[49]: x[49] + u[49] - r[49] <= 1
 mccormick3[50]: x[50] + u[50] - r[50] <= 1
 mccormick3[51]: x[51] + u[51] - r[51] <= 1
 mccormick3[52]: x[52] + u[52] - r[52] <= 1
 mccormick3[53]: x[53] + u[53] - r[53] <= 1
 mccormick3[54]: x[54] + u[54] - r[54] <= 1
 mccormick3[55]: x[55] + u[55] - r[55] <= 1
 mccormick3[56]: x[56] + u[56] - r[56] <= 1
 mccormick3[57]: x[57] + u[57] - r[57] <= 1
 mccormick3[58]: x[58] + u[58] - r[58] <= 1
 mccormick3[59]: x[59] + u[59] - r[59] <= 1
 mccormick3[60]: x[60] + u[60] - r[60] <= 1
 mccormick3[61]: x[61] + u[61] - r[61] <= 1
 mccormick3[62]: x[62] + u[62] - r[62] <= 1
 mccormick3[63]: x[63] + u[63] - r[63] <= 1
 mccormick3[64]: x[64] + u[64] - r[64] <= 1
 mccormick3[65]: x[65] + u[65] - r[65] <= 1
 mccormick3[66]: x[66] + u[66] - r[66] <= 1
 mccormick3[67]: x[67] + u[67] - r[67] <= 1
 mccormick3[68]: x[68] + u[68] - r[68] <= 1
 mccormick3[69]: x[69] + u[69] - r[69] <= 1
 mccormick3[70]: x[70] + u[70] - r[70] <= 1
 mccormick3[71]: x[71] + u[71] - r[71] <= 1
 mccormick3[72]: x[72] + u[72] - r[72] <= 1
 mccormick3[73]: x[73] + u[73] - r[73] <= 1
 mccormick3[74]: x[74] + u[74] - r[74] <= 1
 mccormick3[75]: x[75] + u[75] - r[75] <= 1
 mccormick3[76]: x[76] + u[76] - r[76] <= 1
 mccormick3[77]: x[77] + u[77] - r[77] <= 1
 mccormick3[78]: x[78] + u[78] - r[78] <= 1
 mccormick3[79]: x[79] + u[79] - r[79] <= 1
Bounds
Binaries
 x[0] x[1] x[2] x[3] x[4] x[5] x[6] x[7] x[8] x[9] x[10] x[11] x[12] x[13]
 x[14] x[15] x[16] x[17] x[18] x[19] x[20] x[21] x[22] x[23] x[24] x[25]
 x[26] x[27] x[28] x[29] x[30] x[31] x[32] x[33] x[34] x[35] x[36] x[37]
 x[38] x[39] x[40] x[41] x[42] x[43] x[44] x[45] x[46] x[47] x[48] x[49]
 x[50] x[51] x[52] x[53] x[54] x[55] x[56] x[57] x[58] x[59] x[60] x[61]
 x[62] x[63] x[64] x[65] x[66] x[67] x[68] x[69] x[70] x[71] x[72] x[73]
 x[74] x[75] x[76] x[77] x[78] x[79] u[0] u[1] u[2] u[3] u[4] u[5] u[6]
 u[7] u[8] u[9] u[10] u[11] u[12] u[13] u[14] u[15] u[16] u[17] u[18] u[19]
 u[20] u[21] u[22] u[23] u[24] u[25] u[26] u[27] u[28] u[29] u[30] u[31]
 u[32] u[33] u[34] u[35] u[36] u[37] u[38] u[39] u[40] u[41] u[42] u[43]
 u[44] u[45] u[46] u[47] u[48] u[49] u[50] u[51] u[52] u[53] u[54] u[55]
 u[56] u[57] u[58] u[59] u[60] u[61] u[62] u[63] u[64] u[65] u[66] u[67]
 u[68] u[69] u[70] u[71] u[72] u[73] u[74] u[75] u[76] u[77] u[78] u[79]
 r[0] r[1] r[2] r[3] r[4] r[5] r[6] r[7] r[8] r[9] r[10] r[11] r[12] r[13]
 r[14] r[15] r[16] r[17] r[18] r[19] r[20] r[21] r[22] r[23] r[24] r[25]
 r[26] r[27] r[28] r[29] r[30] r[31] r[32] r[33] r[34] r[35] r[36] r[37]
 r[38] r[39] r[40] r[41] r[42] r[43] r[44] r[45] r[46] r[47] r[48] r[49]
 r[50] r[51] r[52] r[53] r[54] r[55] r[56] r[57] r[58] r[59] r[60] r[61]
 r[62] r[63] r[64] r[65] r[66] r[67] r[68] r[69] r[70] r[71] r[72] r[73]
 r[74] r[75] r[76] r[77] r[78] r[79]
End
