instances/knapsack/discrete_knapsack_uncertainty/knapsack_80_2.kp
13570
80
381

8 0.8 2
36 3.6 27
66 6.6 64
15 1.5 96
72 7.2 98
58 5.8 5
49 4.9 74
92 9.2 40
81 8.1 67
82 8.2 91
44 4.4 71
27 2.7 19
32 3.2 91
20 2.0 74
81 8.1 63
41 4.1 56
57 5.7 74
52 5.2 66
25 2.5 67
2 0.2 66
93 9.3 6
32 3.2 23
16 1.6 40
3 0.3 80
37 3.7 93
40 4.0 23
14 1.4 40
20 2.0 16
78 7.8 70
59 5.9 85
22 2.2 61
92 9.2 4
32 3.2 48
41 4.1 15
92 9.2 40
9 0.9 25
4 0.4 17
29 2.9 19
96 9.6 31
11 1.1 72
87 8.7 100
30 3.0 78
6 0.6 18
38 3.8 91
39 3.9 35
95 9.5 3
50 5.0 9
54 5.4 17
83 8.3 21
76 7.6 10
87 8.7 51
60 6.0 99
1 0.1 27
64 6.4 33
1 0.1 60
100 10.0 62
49 4.9 83
11 1.1 88
100 10.0 92
86 8.6 59
97 9.7 28
95 9.5 50
100 10.0 18
19 1.9 26
40 4.0 15
4 0.4 93
69 6.9 29
71 7.1 30
12 1.2 81
34 3.4 62
98 9.8 9
38 3.8 43
98 9.8 61
83 8.3 10
80 8.0 47
25 2.5 74
55 5.5 58
19 1.9 65
13 1.3 36
79 7.9 40

88754
391

[2.9333997735551605 1.9418601421375985 4.188041793042174 0.9062811297013486 4.63797816146667 3.683405835925046 3.8156119732499656 0.7104838396654999 1.8074390176333481 4.2124113469256 2.385509907144337 3.4029003435001095 3.2517726000082194 3.4532576888260147 4.154687654897162 1.718569077638527 4.837882755484789 2.409800475387831 4.737920594668189 1.6964275945658205 1.463426982714115 3.7845642490451166 3.0501782626105673 1.3881315266150214 2.91970561539229 0.21838637718576084 3.379014089522961 3.287449087610542 1.9477830831257499 3.619467271607704 0.6989822905723054 2.5941629494961127 3.684838746464261 2.3189616010431497 0.9103800057391194 1.100855633021899 3.266728801535371 3.88974781212338 3.6775951941168574 0.865114828835515 2.5988289754064753 0.5733444466530755 4.613032688382331 0.7414509271844922 0.8116626281380491 3.0463843615403814 1.6000341324164786 3.9591615750411138 3.9811764923690163 1.0806986460352739 0.8371405081582994 0.3881201966091792 0.4890036146808393 2.2156427911835928 4.470110267678251 2.2224202410158007 1.647722873851946 3.1387603518776266 4.884074540418129 0.5651167711560966 3.523150242234156 3.7089097626245784 3.1038400023230266 0.6693950391199488 1.6382166933541327 2.3962855674390644 0.7501356837045473 1.2397972948180953 4.497014580438268 4.150135979024114 0.5095350324677379 0.7266575058642214 4.720179708118404 0.3253230737900752 0.8726120763007827 1.5590118344237995 0.4335904856992426 1.7490933591733464 0.551444369877756 4.8004604004676406]

[12 76 22 7 76 58 25 28 61 10 4 87 4 52 85 65 37 32 93 74 81 96 80 67 57 80 74 100 54 43 98 92 24 69 48 57 64 69 8 31 23 78 2 10 95 83 78 18 43 32 75 76 85 20 17 32 49 39 36 2 29 15 68 91 8 76 41 91 52 34 54 46 66 51 36 73 79 35 5 63]
